p cnf 10 50
6 -7 10 0
-2 -4 -6 0
-5 1 7 0
10 -5 3 0
9 -7 -6 0
7 1 3 0
-5 -6 -1 0
-3 8 10 0
3 -2 9 0
10 -4 6 0
6 -4 1 0
10 8 -1 0
-10 -1 3 0
-2 5 -1 0
-9 -3 2 0
-4 6 -3 0
8 -1 -3 0
-9 2 -3 0
8 -10 2 0
7 2 -4 0
-9 -7 -2 0
7 -1 4 0
7 -2 9 0
5 -1 8 0
-9 7 -4 0
-7 -10 -1 0
-2 9 1 0
2 -6 -3 0
6 4 -2 0
-8 7 6 0
-9 -1 8 0
9 8 10 0
8 9 -6 0
-8 7 6 0
8 1 7 0
8 -9 -4 0
2 -7 -5 0
3 -5 9 0
-3 -10 7 0
-2 -6 3 0
-7 5 -9 0
-3 8 4 0
5 8 3 0
-5 -4 -7 0
-2 -1 -9 0
6 8 2 0
-3 8 -2 0
10 -5 -7 0
6 3 -8 0
5 6 8 0